# Instance created by Brandimarte (1993)
225 205 10
0 1
1 2
2 3
3 4
4 5
5 6
6 7
7 8
8 9
10 11
11 12
12 13
13 14
14 15
15 16
16 17
17 18
18 19
19 20
20 21
22 23
23 24
24 25
25 26
26 27
27 28
28 29
29 30
30 31
31 32
32 33
33 34
34 35
36 37
37 38
38 39
39 40
40 41
41 42
42 43
43 44
44 45
46 47
47 48
48 49
49 50
50 51
51 52
52 53
53 54
54 55
55 56
56 57
58 59
59 60
60 61
61 62
62 63
63 64
64 65
65 66
66 67
68 69
69 70
70 71
71 72
72 73
73 74
74 75
75 76
76 77
77 78
78 79
80 81
81 82
82 83
83 84
84 85
85 86
86 87
87 88
88 89
89 90
91 92
92 93
93 94
94 95
95 96
96 97
97 98
98 99
99 100
100 101
101 102
102 103
103 104
105 106
106 107
107 108
108 109
109 110
110 111
111 112
112 113
113 114
114 115
116 117
117 118
118 119
119 120
120 121
121 122
122 123
123 124
124 125
125 126
127 128
128 129
129 130
130 131
131 132
132 133
133 134
134 135
135 136
137 138
138 139
139 140
140 141
141 142
142 143
143 144
144 145
145 146
146 147
148 149
149 150
150 151
151 152
152 153
153 154
154 155
155 156
156 157
157 158
159 160
160 161
161 162
162 163
163 164
164 165
165 166
166 167
167 168
168 169
170 171
171 172
172 173
173 174
174 175
175 176
176 177
177 178
178 179
179 180
181 182
182 183
183 184
184 185
185 186
186 187
187 188
188 189
189 190
190 191
191 192
192 193
194 195
195 196
196 197
197 198
198 199
199 200
200 201
201 202
202 203
203 204
205 206
206 207
207 208
208 209
209 210
210 211
211 212
212 213
213 214
215 216
216 217
217 218
218 219
219 220
220 221
221 222
222 223
223 224
2 6 18 3 5
2 4 7 6 7
1 2 19
1 6 14
2 3 5 9 12
1 0 10
1 9 18
2 6 10 7 19
2 2 11 7 9
2 2 5 7 12
1 1 5
2 6 18 3 5
2 2 5 7 12
1 0 10
1 9 19
2 2 15 3 19
1 6 14
1 4 9
2 4 14 8 5
1 0 19
2 6 10 7 19
1 0 16
2 4 14 8 5
1 0 19
1 0 10
1 2 19
2 6 18 3 5
2 3 5 9 12
2 2 5 7 12
1 9 10
1 4 9
1 0 7
2 6 10 7 19
1 0 10
1 9 19
1 9 18
1 9 10
2 4 7 6 7
1 6 14
1 0 10
1 9 18
2 2 15 6 13
2 9 14 4 7
2 2 11 7 9
1 8 11
1 4 9
1 4 9
2 4 14 8 5
2 6 18 3 5
2 2 11 7 9
1 0 10
1 8 11
1 0 7
1 6 14
2 3 5 9 12
2 2 15 3 19
1 7 18
1 9 19
2 2 15 6 13
1 2 19
1 4 9
1 9 19
2 2 5 7 12
2 6 18 3 5
2 7 14 9 9
2 3 5 9 12
1 9 18
1 0 7
1 0 10
1 9 18
1 0 7
1 4 9
2 7 14 9 9
2 6 10 7 19
2 2 15 3 19
2 9 14 4 7
1 7 18
1 9 19
1 0 19
1 0 10
1 0 10
1 6 14
1 0 10
2 2 15 3 19
2 4 14 8 5
2 6 18 3 5
1 2 19
1 0 19
2 3 5 9 12
1 4 9
1 9 19
2 6 10 7 19
2 7 14 9 9
1 0 19
1 9 19
2 9 14 4 7
1 1 5
2 3 5 9 12
2 4 7 6 7
1 0 16
1 0 7
1 8 11
1 2 19
1 0 10
1 9 18
1 9 19
2 9 14 4 7
1 7 18
2 2 11 7 9
1 0 7
1 0 10
2 4 14 8 5
2 2 15 3 19
1 9 18
1 2 19
1 0 19
2 4 14 8 5
1 0 10
1 7 18
2 2 15 3 19
2 6 10 7 19
2 2 5 7 12
2 2 11 7 9
2 7 14 9 9
1 9 10
1 8 11
1 2 19
1 9 19
2 2 11 7 9
2 4 7 6 7
1 0 16
1 6 14
2 6 18 3 5
2 3 5 9 12
1 0 10
1 7 18
2 4 14 8 5
2 9 14 4 7
1 9 19
2 6 10 7 19
2 2 15 3 19
1 0 19
1 7 18
2 7 14 9 9
2 2 11 7 9
1 9 18
2 4 14 8 5
1 1 5
1 0 10
2 4 7 6 7
1 0 10
1 8 11
1 6 14
2 2 15 6 13
2 7 14 9 9
1 0 16
2 2 5 7 12
2 4 14 8 5
1 1 5
2 4 14 8 5
2 4 7 6 7
1 6 14
1 9 10
2 6 10 7 19
2 2 15 3 19
2 6 18 3 5
1 0 7
2 2 11 7 9
1 0 19
1 7 18
1 1 5
2 6 10 7 19
1 9 10
1 8 11
1 7 18
2 9 14 4 7
2 4 14 8 5
1 0 10
1 0 19
2 2 15 6 13
2 7 14 9 9
1 9 10
2 4 14 8 5
1 4 9
1 9 19
1 0 10
2 2 5 7 12
1 1 5
2 9 14 4 7
1 0 10
2 7 14 9 9
2 2 15 6 13
1 0 16
1 6 14
2 2 15 6 13
1 1 5
1 9 19
1 2 19
1 7 18
1 0 7
1 4 9
1 6 14
2 6 18 3 5
1 0 10
2 4 14 8 5
2 6 10 7 19
1 1 5
2 2 11 7 9
1 8 11
2 3 5 9 12
1 9 18
2 6 18 3 5
2 7 14 9 9
2 2 5 7 12
1 9 19
1 9 18
1 9 10
1 6 14
1 8 11
2 2 15 6 13
1 1 5
2 7 14 9 9
2 2 5 7 12
1 4 9
1 0 16
